1617770
0,11,31,39,55,41,60,23,62,15,27,49,35,58,1,47,3,19,64,44,26,16,8,57,14,7,67,34,50,38,61,36,52,43,13,9,17,56,32,51,21,30,20,2,37,63,66,6,42,45,33,54,25,65,10,5,40,29,24,28,4,59,22,48,18,53,12,46,0